decision_x1=[0,4];
decision_x2=[0,4];
decision_x3=[0,4];
decision_x4=[0,4];
decision_x5=[0,4];
decision_x6=[0,4];
decision_x7=[0,4];
decision_x8=[0,4];
random_y1=[0,4];
random_y2=[0,4];
random_y3=[0,4];
random_y4=[0,4];
constraint_x2_x1=[
0,1,4.6|
0,2,4.5|
0,3,1|
0,4,9.3|
1,0,1.3|
1,2,6.8|
1,3,5.9|
1,4,6.3|
2,0,4.9|
2,1,8.5|
2,3,4.1|
2,4,0.33|
3,0,8.7|
3,1,8.9|
3,2,7.5|
3,4,1.8|
4,0,2.8|
4,1,5.5|
4,2,6.4|
4,3,9.6|
];
constraint_x3_x1=[
0,1,2.3|
0,2,2.4|
0,3,4.9|
0,4,4|
1,0,6.7|
1,2,0.41|
1,3,8.1|
1,4,3.6|
2,0,9.3|
2,1,1.1|
2,3,2.8|
2,4,3.8|
3,0,8.6|
3,1,9.4|
3,2,4|
3,4,0.72|
4,0,0.33|
4,1,9.7|
4,2,5.6|
4,3,2.9|
];
constraint_x4_x1=[
0,1,0.1|
0,2,8.2|
0,3,1.7|
0,4,7.5|
1,0,0.86|
1,2,6.1|
1,3,1.7|
1,4,9.4|
2,0,3|
2,1,4|
2,3,5.5|
2,4,7.1|
3,0,7.8|
3,1,8.7|
3,2,9.6|
3,4,2.2|
4,0,5|
4,1,0.71|
4,2,6.2|
4,3,8.3|
];
constraint_x4_x2=[
0,1,6|
0,2,7.7|
0,3,3.3|
0,4,2.6|
1,0,2.4|
1,2,5.2|
1,3,5.2|
1,4,5.3|
2,0,1|
2,1,2|
2,3,9.4|
2,4,3.1|
3,0,8|
3,1,5.2|
3,2,0.51|
3,4,4.1|
4,0,1.7|
4,1,6.1|
4,2,6.1|
4,3,2.9|
];
constraint_x4_x3=[
0,1,3.3|
0,2,6.9|
0,3,8.2|
0,4,6.1|
1,0,8.6|
1,2,3.9|
1,3,4.2|
1,4,1.5|
2,0,4|
2,1,1.4|
2,3,3|
2,4,5.7|
3,0,0.47|
3,1,7.4|
3,2,8|
3,4,4.3|
4,0,3.8|
4,1,0.65|
4,2,8.3|
4,3,4.4|
];
constraint_x5_x1=[
0,1,5.9|
0,2,4.2|
0,3,0.5|
0,4,0.63|
1,0,7.1|
1,2,4.5|
1,3,6.4|
1,4,2.5|
2,0,4.9|
2,1,8.9|
2,3,1.1|
2,4,9.4|
3,0,8.6|
3,1,4|
3,2,3.2|
3,4,2.2|
4,0,4.3|
4,1,2.2|
4,2,2.6|
4,3,4.6|
];
constraint_x5_x2=[
0,1,4.5|
0,2,7.4|
0,3,8.4|
0,4,2.1|
1,0,3.6|
1,2,0.52|
1,3,9.4|
1,4,9.6|
2,0,9|
2,1,7.9|
2,3,3.4|
2,4,7.7|
3,0,8.5|
3,1,7.6|
3,2,3.1|
3,4,2.6|
4,0,0.21|
4,1,1.8|
4,2,2.7|
4,3,8.7|
];
constraint_x5_x3=[
0,1,0.36|
0,2,8.7|
0,3,9.4|
0,4,6.6|
1,0,0.64|
1,2,8.2|
1,3,4.9|
1,4,10|
2,0,7.4|
2,1,1.4|
2,3,9.5|
2,4,7.8|
3,0,6.1|
3,1,0.68|
3,2,5.7|
3,4,8.8|
4,0,2|
4,1,5.7|
4,2,0.75|
4,3,5|
];
constraint_x6_x1=[
0,1,7.2|
0,2,9.6|
0,3,5.1|
0,4,2.7|
1,0,8.1|
1,2,3.4|
1,3,3.9|
1,4,9.2|
2,0,2.6|
2,1,2.4|
2,3,4.8|
2,4,3.9|
3,0,5.3|
3,1,3.4|
3,2,8.2|
3,4,5.9|
4,0,0.56|
4,1,3.5|
4,2,1.5|
4,3,9.7|
];
constraint_x6_x2=[
0,1,9.6|
0,2,5.1|
0,3,4.1|
0,4,3.3|
1,0,7.3|
1,2,7.6|
1,3,1.8|
1,4,9.8|
2,0,0.13|
2,1,9.2|
2,3,3.1|
2,4,6.1|
3,0,3.9|
3,1,6.7|
3,2,8.1|
3,4,3|
4,0,3.3|
4,1,2.6|
4,2,2.1|
4,3,3|
];
constraint_x6_x5=[
0,1,0.59|
0,2,5.9|
0,3,9.7|
0,4,5|
1,0,1.4|
1,2,0.93|
1,3,7.7|
1,4,3.9|
2,0,4.3|
2,1,4.1|
2,3,0.32|
2,4,6.7|
3,0,6.6|
3,1,6.2|
3,2,3.6|
3,4,0.42|
4,0,2.6|
4,1,3.1|
4,2,6.3|
4,3,6.3|
];
constraint_x7_x2=[
0,1,5.9|
0,2,8.8|
0,3,8.5|
0,4,8|
1,0,8.5|
1,2,3.1|
1,3,6.6|
1,4,9.9|
2,0,0.94|
2,1,4.5|
2,3,7.6|
2,4,0.86|
3,0,8.5|
3,1,4.1|
3,2,1.1|
3,4,1.1|
4,0,0.6|
4,1,9.1|
4,2,1.6|
4,3,8.5|
];
constraint_x7_x3=[
0,1,9.6|
0,2,10|
0,3,5.3|
0,4,0.58|
1,0,5.4|
1,2,9.1|
1,3,1.6|
1,4,6.1|
2,0,4.9|
2,1,5.9|
2,3,8.9|
2,4,5.1|
3,0,1.2|
3,1,1.1|
3,2,7.6|
3,4,8.9|
4,0,4.9|
4,1,6.8|
4,2,4|
4,3,8.6|
];
constraint_x8_x6=[
0,1,8.6|
0,2,5.6|
0,3,8.2|
0,4,1.2|
1,0,1.1|
1,2,8.2|
1,3,5.7|
1,4,8.6|
2,0,3.1|
2,1,5.3|
2,3,4.7|
2,4,6.8|
3,0,1.3|
3,1,5.7|
3,2,3.9|
3,4,4.4|
4,0,5|
4,1,7.1|
4,2,1.8|
4,3,9.4|
];
constraint_x1_y1=[
0,0,7.9|
0,1,4.6|
0,2,8.7|
0,3,4.7|
0,4,1.7|
1,0,5.9|
1,1,6|
1,2,6.5|
1,3,8.2|
1,4,7.1|
2,0,8.7|
2,1,9.1|
2,2,8.3|
2,3,0.33|
2,4,1.4|
3,0,8.6|
3,1,5.2|
3,2,0.92|
3,3,0.48|
3,4,6.4|
4,0,9|
4,1,9.9|
4,2,3.7|
4,3,3.8|
4,4,4.9|
];
constraint_x2_y2=[
0,0,7.6|
0,1,6|
0,2,1.2|
0,3,4|
0,4,4.6|
1,0,4.9|
1,1,1.5|
1,2,5|
1,3,9.5|
1,4,0.92|
2,0,5.4|
2,1,1|
2,2,0.14|
2,3,8.3|
2,4,4.9|
3,0,7.3|
3,1,3.6|
3,2,1.8|
3,3,7.8|
3,4,9.7|
4,0,0.53|
4,1,4.7|
4,2,2.9|
4,3,3.3|
4,4,3.5|
];
constraint_x3_y3=[
0,0,2.4|
0,1,3.7|
0,2,0.9|
0,3,2.5|
0,4,9.5|
1,0,6.2|
1,1,6.2|
1,2,5.2|
1,3,8.2|
1,4,2.4|
2,0,4.6|
2,1,3.3|
2,2,0.42|
2,3,2.2|
2,4,1.1|
3,0,6.5|
3,1,5.9|
3,2,3.1|
3,3,1.6|
3,4,7.1|
4,0,6|
4,1,3.7|
4,2,1|
4,3,4.8|
4,4,4|
];
constraint_x4_y4=[
0,0,0.85|
0,1,0.97|
0,2,1|
0,3,0.2|
0,4,4|
1,0,3.9|
1,1,6.4|
1,2,9.5|
1,3,1.3|
1,4,3.5|
2,0,5.7|
2,1,4.5|
2,2,1.7|
2,3,0.94|
2,4,4.4|
3,0,4.7|
3,1,1.8|
3,2,7.1|
3,3,0.065|
3,4,8.5|
4,0,2|
4,1,0.72|
4,2,8.4|
4,3,4.8|
4,4,0.065|
];
initial_distribution_y1=[0.32,0.27,0.052,0.35,0.0082];
initial_distribution_y2=[0.016,0.17,0.26,0.45,0.1];
initial_distribution_y3=[0.25,0.34,0.13,0.26,0.027];
initial_distribution_y4=[0.2,0.18,0.013,0.28,0.33];
transition_y1=[
0.19,0.069,0.23,0.12,0.4|
0.32,0.3,0.063,0.091,0.23|
0.041,0.03,0.33,0.3,0.3|
0.24,0.3,0.088,0.069,0.3|
0.17,0.16,0.23,0.19,0.25|
];
transition_y2=[
0.28,0.22,0.04,0.17,0.28|
0.13,0.31,0.26,0.2,0.1|
0.25,0.1,0.16,0.22,0.27|
0.32,0.0068,0.26,0.28,0.12|
0.37,0.22,0.25,0.035,0.12|
];
transition_y3=[
0.2,0.23,0.29,0.02,0.26|
0.3,0.16,0.12,0.024,0.4|
0.21,0.16,0.14,0.34,0.15|
0.17,0.22,0.28,0.17,0.17|
0.14,0.066,0.31,0.12,0.36|
];
transition_y4=[
0.066,0.28,0.24,0.2,0.21|
0.18,0.083,0.21,0.065,0.46|
0.25,0.29,0.18,0.23,0.045|
0.3,0.23,0.13,0.13,0.21|
0.25,0.031,0.34,0.23,0.14|
];
